Solver command line: []

Read LP format model from file C:\Users\wlhlm\AppData\Local\Temp\tmpj82d_5_g.pyomo.lp
Reading time = 38.26 seconds
objective: 1005744 rows, 878399 columns, 79411710 nonzeros
Set parameter MIPGap to value 0.03
Gurobi Optimizer version 12.0.1 build v12.0.1rc0 (win64 - Windows 11.0 (26100.2))

CPU model: Intel(R) Core(TM) Ultra 7 258V, instruction set [SSE2|AVX|AVX2]
Thread count: 8 physical cores, 8 logical processors, using up to 8 threads

Non-default parameters:
MIPGap  0.03

Optimize a model with 1005744 rows, 878399 columns and 79411710 nonzeros
Model fingerprint: 0x25bb24bd
Model has 8783 quadratic constraints
Variable types: 755424 continuous, 122975 integer (105408 binary)
Coefficient statistics:
  Matrix range     [7e-03, 2e+02]
  QMatrix range    [1e+00, 1e+00]
  Objective range  [1e-02, 4e+02]
  Bounds range     [1e+00, 3e+00]
  RHS range        [8e-05, 1e+04]
Presolve removed 158112 rows and 122976 columns (presolve time = 12s)...
Presolve removed 619252 rows and 496275 columns (presolve time = 17s)...
Presolve removed 658759 rows and 531413 columns (presolve time = 22s)...
Presolve removed 680694 rows and 548981 columns (presolve time = 27s)...
Presolve removed 698762 rows and 555947 columns (presolve time = 33s)...
Presolve removed 701337 rows and 558522 columns (presolve time = 36s)...
Presolve removed 704067 rows and 561252 columns (presolve time = 40s)...
Presolve removed 704067 rows and 561252 columns (presolve time = 48s)...
Presolve removed 704067 rows and 561252 columns (presolve time = 52s)...
Presolve removed 712850 rows and 561252 columns (presolve time = 62s)...
Presolve removed 712850 rows and 561252 columns (presolve time = 65s)...
Presolve removed 712850 rows and 561253 columns (presolve time = 70s)...
Presolve removed 712850 rows and 561253 columns (presolve time = 77s)...
Presolve removed 808624 rows and 665695 columns
Presolve time: 77.90s
Presolved: 197120 rows, 212704 columns, 621295 nonzeros
Variable types: 149381 continuous, 63323 integer (63323 binary)
Performing another presolve...
Presolve removed 52700 rows and 52702 columns
Presolve time: 3.93s
Deterministic concurrent LP optimizer: primal and dual simplex
Showing primal log only...


Root simplex log...

Iteration    Objective       Primal Inf.    Dual Inf.      Time
       0    3.9978744e+07   3.290223e+07   4.892069e+13     84s
   58180    4.0406214e+07   7.086902e+03   7.924356e+09     85s
Concurrent spin time: 0.02s

Solved with dual simplex

Root simplex log...

Iteration    Objective       Primal Inf.    Dual Inf.      Time
   50082    3.3372393e+07   0.000000e+00   0.000000e+00     85s

Root relaxation: objective 3.337239e+07, 50082 iterations, 2.14 seconds (3.45 work units)
Total elapsed time = 85.37s (DegenMoves)

    Nodes    |    Current Node    |     Objective Bounds      |     Work
 Expl Unexpl |  Obj  Depth IntInf | Incumbent    BestBd   Gap | It/Node Time

     0     0 3.3372e+07    0  427          - 3.3372e+07      -     -   87s
H    0     0                    3.350619e+07 3.3372e+07  0.40%     -   88s

Explored 1 nodes (57010 simplex iterations) in 89.22 seconds (62.99 work units)
Thread count was 8 (of 8 available processors)

Solution count 1: 3.35062e+07 

Optimal solution found (tolerance 3.00e-02)
Best objective 3.350619138364e+07, best bound 3.337239321722e+07, gap 0.3993%

